
<<< setup


<<< generate

Version identifier: 12.10.0.0 | 2019-11-26 | 843d4de2ae
CPXPARAM_TimeLimit                               1200
Tried aggregator 3 times.
MIP Presolve eliminated 5128046 rows and 2895448 columns.
MIP Presolve modified 408712 coefficients.
Aggregator did 714 substitutions.
Reduced MIP has 114290 rows, 115388 columns, and 744823 nonzeros.
Reduced MIP has 115338 binaries, 0 generals, 0 SOSs, and 0 indicators.
Presolve time = 7.92 sec. (4732.41 ticks)
Found incumbent of value 6571.000000 after 12.27 sec. (6127.97 ticks)
Probing fixed 2588 vars, tightened 0 bounds.
Probing time = 50.53 sec. (9340.54 ticks)
Tried aggregator 1 time.
Detecting symmetries...
MIP Presolve eliminated 2579 rows and 2588 columns.
Reduced MIP has 111711 rows, 112800 columns, and 727343 nonzeros.
Reduced MIP has 112750 binaries, 0 generals, 0 SOSs, and 0 indicators.
Presolve time = 0.88 sec. (468.55 ticks)
Probing time = 0.38 sec. (59.49 ticks)
Clique table members: 397536.
MIP emphasis: balance optimality and feasibility.
MIP search method: dynamic search.
Parallel mode: deterministic, using up to 4 threads.
Root relaxation solution time = 15.78 sec. (7057.41 ticks)

        Nodes                                         Cuts/
   Node  Left     Objective  IInf  Best Integer    Best Bound    ItCnt     Gap

*     0+    0                         6571.0000   135355.0000              --- 
      0     0    71835.0000   581     6571.0000    71835.0000    16549  993.21%
*     0+    0                        13417.0000    71835.0000           435.40%
      0     0    71835.0000   581    13417.0000      Cuts: 18    16607  435.40%
      0     0    71835.0000   581    13417.0000    Cuts: 8429    23392  435.40%
      0     0    71835.0000   581    13417.0000     Cuts: 133    23482  435.40%
      0     0    71835.0000   581    13417.0000    Cuts: 5808    28487  435.40%
Heuristic still looking.
      0     2    71835.0000   227    13417.0000    71835.0000    28487  435.40%
Elapsed time = 373.19 sec. (146608.78 ticks, tree = 0.02 MB, solutions = 2)
      1     3    71835.0000   424    13417.0000    71835.0000    46986  435.40%
      2     3    71835.0000   379    13417.0000    71835.0000    46410  435.40%
      3     5    71835.0000   544    13417.0000    71835.0000    78359  435.40%
      4     4    71835.0000   377    13417.0000    71835.0000    57362  435.40%
      5     7    71835.0000   424    13417.0000    71835.0000   100065  435.40%
      7     8    71835.0000   447    13417.0000    71835.0000   103880  435.40%
      9     9    71835.0000   481    13417.0000    71835.0000   112377  435.40%
     10    10    71835.0000   439    13417.0000    71835.0000   126512  435.40%
     11     4    71835.0000   446    13417.0000    71835.0000    58335  435.40%
     12     5    71835.0000   642    13417.0000    71835.0000    81583  435.40%
Elapsed time = 538.36 sec. (203730.26 ticks, tree = 0.02 MB, solutions = 2)
     14    11    71835.0000   480    13417.0000    71835.0000   135491  435.40%
     15    11    71835.0000   542    13417.0000    71835.0000   144927  435.40%
     16    10    71835.0000   496    13417.0000    71835.0000   131751  435.40%
     18    12    71835.0000   584    13417.0000    71835.0000   165651  435.40%
     21    11    71835.0000   381    13417.0000    71835.0000   163231  435.40%
     22    14    71835.0000   480    13417.0000    71835.0000   144368  435.40%
     25    15    71835.0000   468    13417.0000    71835.0000   174143  435.40%
     28    22    71835.0000   484    13417.0000    71835.0000   249199  435.40%
     30    23    71835.0000   480    13417.0000    71835.0000   250632  435.40%
     32    26    71835.0000   512    13417.0000    71835.0000   287752  435.40%
Elapsed time = 623.88 sec. (229487.09 ticks, tree = 0.62 MB, solutions = 2)
     33    29    71835.0000   464    13417.0000    71835.0000   298631  435.40%
     36    25    71835.0000   479    13417.0000    71835.0000   269094  435.40%
     40    34    71835.0000   461    13417.0000    71835.0000   301836  435.40%
     44    26    71835.0000   464    13417.0000    71835.0000   271323  435.40%
     45    32    71835.0000   548    13417.0000    71835.0000   317845  435.40%
     49    36    71835.0000   423    13417.0000    71835.0000   313356  435.40%
     52    37    71835.0000   417    13417.0000    71835.0000   317270  435.40%
     54    46    71835.0000   460    13417.0000    71835.0000   357668  435.40%
     56    47    71835.0000   454    13417.0000    71835.0000   341924  435.40%
     57    38    71835.0000   455    13417.0000    71835.0000   326812  435.40%
Elapsed time = 719.31 sec. (248306.18 ticks, tree = 0.96 MB, solutions = 2)
     58    53    71835.0000   370    13417.0000    71835.0000   405532  435.40%
     60    52    71835.0000   372    13417.0000    71835.0000   394369  435.40%
     61    55    71835.0000   357    13417.0000    71835.0000   416176  435.40%
     62    48    71835.0000   419    13417.0000    71835.0000   345309  435.40%
     63    47    71835.0000   436    13417.0000    71835.0000   372225  435.40%
     64    64    71835.0000   453    13417.0000    71835.0000   447273  435.40%
     66    66    71835.0000   441    13417.0000    71835.0000   450707  435.40%
     67    67    71835.0000   429    13417.0000    71835.0000   453307  435.40%
     70    69    71835.0000   414    13417.0000    71835.0000   456610  435.40%
     72    70    71835.0000   387    13417.0000    71835.0000   458371  435.40%
Elapsed time = 918.08 sec. (284926.79 ticks, tree = 3.08 MB, solutions = 2)
     75    72    71835.0000   386    13417.0000    71835.0000   460421  435.40%
     78    74    71835.0000   390    13417.0000    71835.0000   462331  435.40%
     80    70    71835.0000   355    13417.0000    71835.0000   458997  435.40%
     83    72    71835.0000   358    13417.0000    71835.0000   460605  435.40%
     87    75    71835.0000   363    13417.0000    71835.0000   463689  435.40%
     91    80    71835.0000   331    13417.0000    71835.0000   476986  435.40%
     93    79    71835.0000   321    13417.0000    71835.0000   467159  435.40%
     98    81    71835.0000   275    13417.0000    71835.0000   468167  435.40%
    101    93    infeasible          13417.0000    71835.0000   491112  435.40%
    106    93    infeasible          13417.0000    71835.0000   492222  435.40%
Elapsed time = 990.78 sec. (298972.43 ticks, tree = 4.35 MB, solutions = 2)
    110    95    71835.0000   229    13417.0000    71835.0000   493637  435.40%
    115    93    infeasible          13417.0000    71835.0000   494110  435.40%
    116    99    71835.0000   318    13417.0000    71835.0000   501461  435.40%
    119    93    infeasible          13417.0000    71835.0000   495105  435.40%
    123    93    infeasible          13417.0000    71835.0000   495900  435.40%
    128    93    infeasible          13417.0000    71835.0000   496872  435.40%
    135    94    71835.0000   254    13417.0000    71835.0000   497633  435.40%
    139   103    71835.0000   353    13417.0000    71835.0000   507002  435.40%
    142   102    71835.0000   367    13417.0000    71835.0000   562993  435.40%
    144   105    71835.0000   338    13417.0000    71835.0000   510289  435.40%
Elapsed time = 1054.02 sec. (312323.37 ticks, tree = 4.91 MB, solutions = 2)
    146    93    71835.0000   351    13417.0000    71835.0000   498599  435.40%
    151   101    71835.0000   300    13417.0000    71835.0000   571085  435.40%
    154   109    71835.0000   344    13417.0000    71835.0000   513490  435.40%
    157   102    71835.0000   286    13417.0000    71835.0000   573124  435.40%
    166   101    71835.0000   288    13417.0000    71835.0000   573497  435.40%
    168   115    71835.0000   380    13417.0000    71835.0000   588134  435.40%
    177   102    71835.0000   270    13417.0000    71835.0000   575065  435.40%
    193   100    71835.0000   305    13417.0000    71835.0000   575292  435.40%
    195   101    71835.0000   315    13417.0000    71835.0000   576490  435.40%
    197   101    71835.0000   414    13417.0000    71835.0000   549135  435.40%
Elapsed time = 1096.74 sec. (325560.56 ticks, tree = 5.95 MB, solutions = 2)
    199   101    71835.0000   380    13417.0000    71835.0000   579102  435.40%
    203   103    71835.0000   281    13417.0000    71835.0000   580511  435.40%
    210   119    71835.0000   223    13417.0000    71835.0000   644093  435.40%
    213   121    71835.0000   522    13417.0000    71835.0000   606168  435.40%
    217   122    71835.0000   353    13417.0000    71835.0000   608691  435.40%
    223   120    71835.0000   294    13417.0000    71835.0000   646130  435.40%
    228   119    71835.0000   315    13417.0000    71835.0000   646596  435.40%
    230   120    71835.0000   309    13417.0000    71835.0000   649037  435.40%
    234   120    71835.0000   273    13417.0000    71835.0000   649517  435.40%
    238   119    infeasible          13417.0000    71835.0000   650382  435.40%
Elapsed time = 1164.77 sec. (342580.12 ticks, tree = 9.04 MB, solutions = 2)
    243   133    71835.0000   340    13417.0000    71835.0000   713929  435.40%
    249   125    71835.0000   349    13417.0000    71835.0000   695637  435.40%
    251   119    71835.0000   356    13417.0000    71835.0000   654696  435.40%
    254   121    71835.0000   315    13417.0000    71835.0000   655804  435.40%
    256   136    71835.0000   344    13417.0000    71835.0000   720110  435.40%
    258   121    71835.0000   344    13417.0000    71835.0000   661138  435.40%
    261   135    71835.0000   374    13417.0000    71835.0000   741774  435.40%
    267   139    71835.0000   358    13417.0000    71835.0000   728340  435.40%

Implied bound cuts applied:  682
Flow cuts applied:  19
Mixed integer rounding cuts applied:  457

Root node processing (before b&c):
  Real time             =  367.55 sec. (144800.79 ticks)
Parallel b&c, 4 threads:
  Real time             =  833.03 sec. (211253.26 ticks)
  Sync time (average)   =  110.88 sec.
  Wait time (average)   =    0.00 sec.
                          ------------
Total (root+branch&cut) = 1200.58 sec. (356054.05 ticks)

<<< solve


OBJECTIVE: 13417

<<< post process


<<< done

